************************************************************************
file with basedata            : md333_.bas
initial value random generator: 1490861521
************************************************************************
projects                      :  1
jobs (incl. supersource/sink ):  22
horizon                       :  155
RESOURCES
  - renewable                 :  2   R
  - nonrenewable              :  2   N
  - doubly constrained        :  0   D
************************************************************************
PROJECT INFORMATION:
pronr.  #jobs rel.date duedate tardcost  MPM-Time
    1     20      0       26       18       26
************************************************************************
PRECEDENCE RELATIONS:
jobnr.    #modes  #successors   successors
   1        1          3           2   3   4
   2        3          3           7   8  19
   3        3          2           5  15
   4        3          2          15  18
   5        3          3           6  10  13
   6        3          3           9  12  17
   7        3          3          10  13  16
   8        3          2          11  16
   9        3          1          18
  10        3          1          11
  11        3          2          12  17
  12        3          1          14
  13        3          3          14  17  18
  14        3          1          20
  15        3          3          16  19  20
  16        3          1          21
  17        3          2          20  21
  18        3          1          21
  19        3          1          22
  20        3          1          22
  21        3          1          22
  22        1          0        
************************************************************************
REQUESTS/DURATIONS:
jobnr. mode duration  R 1  R 2  N 1  N 2
------------------------------------------------------------------------
  1      1     0       0    0    0    0
  2      1     4      10    9    6    0
         2     6       9    6    0    4
         3     9       9    5    5    0
  3      1     3       8    4    6    0
         2     5       8    3    4    0
         3     9       8    2    4    0
  4      1     6       1    4    7    0
         2     7       1    4    0    7
         3    10       1    4    5    0
  5      1     6       4    5    5    0
         2     9       4    3    4    0
         3     9       4    3    0   10
  6      1     5       5    6    3    0
         2     8       4    3    3    0
         3     9       1    2    1    0
  7      1     2       7    8    3    0
         2     8       7    7    0    1
         3     9       6    6    0    1
  8      1     1       8    8    0    3
         2     4       7    7    0    3
         3     8       5    7    0    1
  9      1     6       7    9    6    0
         2     6       7    8    0    6
         3     7       7    7    6    0
 10      1     2       7    2    6    0
         2     4       6    2    0    7
         3     8       3    2    0    5
 11      1     1       5    7    6    0
         2     4       3    4    3    0
         3    10       2    4    1    0
 12      1     1       8    6    7    0
         2     4       6    5    0    3
         3     9       3    5    0    3
 13      1     1       2    4    6    0
         2     9       1    1    3    0
         3     9       2    3    0    9
 14      1     1       8    5    0    4
         2     7       6    4    0    4
         3     8       4    4    8    0
 15      1     3       8    9    0    9
         2     3       9    8    5    0
         3     5       6    3    5    0
 16      1     9       4    7    0    9
         2    10       3    4    5    0
         3    10       4    3    5    0
 17      1     3       7    5    5    0
         2     5       7    4    5    0
         3     7       4    3    0    9
 18      1     1       8    7    0    2
         2     3       8    6    3    0
         3     5       8    5    2    0
 19      1     1       6    6    5    0
         2     2       6    4    4    0
         3     2       6    4    0    8
 20      1     1       9   10    0   10
         2     4       6    8    0    5
         3     6       6    8    0    3
 21      1     5       9   10    0    7
         2     5      10   10   10    0
         3     6       9    7    0   10
 22      1     0       0    0    0    0
************************************************************************
RESOURCEAVAILABILITIES:
  R 1  R 2  N 1  N 2
   13   13   54   58
************************************************************************
MAXIMAL LAGS:
from  to  type  delay
    1   12   ES      0
    1    2   ES      0
    2   12   ES      0
    1    3   ES      0
    3   12   ES      0
    1    4   ES      0
    4   12   ES      0
    1    5   ES      0
    5   12   ES      0
    1    6   ES      0
    6   12   ES      0
    1    7   ES      0
    7   12   ES      0
    1    8   ES      0
    8   12   ES      0
    1    9   ES      0
    9   12   ES      0
    1   10   ES      0
   10   12   ES      0
    1   11   ES      0
   11   12   ES      0
    1   12   ES      0
    2    7   SS    -11
    2    7   SE      2
    2    7   ES    -11
    2    7   EE     -7
    2    8   SS      6
    2    8   SE      1
    2    8   ES     11
    2    8   EE      0
    2   19   SS      3
    2   19   SE    -12
   19    2   SE      0
    2   19   ES      0
    2   19   EE      9
    3    5   SS      1
    3    5   SE     -7
    3    5   ES     -1
    3    5   EE     -6
    3   15   SS     -7
    3   15   SE     -4
    3   15   ES     -4
    3   15   EE      2
    4   15   SS     -8
    4   15   SE    -11
    4   15   ES      7
    4   15   EE      7
    4   18   SS      7
    4   18   SE     -5
    4   18   ES      8
    4   18   EE     -3
    5    6   SS      3
    5    6   SE      1
    5    6   ES      5
    5    6   EE      3
    5   10   SS    -11
    5   10   SE    -10
    5   10   ES     -4
    5   10   EE      0
    5   13   SS     -8
    5   13   SE      1
    5   13   ES     -6
    5   13   EE      8
    6    9   SS      4
    6    9   SE     -5
    6    9   ES      8
    6    9   EE      5
    6   17   SS    -12
    6   17   SE      0
    6   17   ES     10
    6   17   EE     -1
    7   10   SS      3
    7   10   SE      5
    7   10   ES      3
    7   10   EE     -1
    7   13   SS      6
    7   13   SE      4
    7   13   ES     -2
    7   13   EE      0
    7   16   SS     -4
    7   16   SE     -7
    7   16   ES    -12
    7   16   EE     -2
    8   11   SS      7
    8   11   SE     -5
    8   11   ES    -12
    8   11   EE     12
    8   16   SS     -4
    8   16   SE    -11
    8   16   ES      3
    8   16   EE      4
    9   18   SS     -1
    9   18   SE     12
    9   18   ES      6
    9   18   EE     -5
   10   11   SS     -7
   10   11   SE     -9
   10   11   ES     -5
   10   11   EE      9
   11   17   SS     -5
   11   17   SE     -4
   11   17   ES      5
   11   17   EE     11
   12   14   SS    -11
   12   14   SE     12
   12   14   ES     -5
   12   14   EE      6
   13   14   SS      0
   13   14   SE     -1
   13   14   ES     -7
   13   14   EE     -7
   13   17   SS     -5
   13   17   SE      6
   13   17   ES     -2
   13   17   EE     11
   13   18   SS     10
   13   18   SE     -1
   13   18   ES      6
   13   18   EE    -12
   14   20   SS     10
   14   20   SE     10
   14   20   ES     -1
   14   20   EE      6
   15   16   SS      6
   15   16   SE     -8
   15   16   ES      6
   15   16   EE     -6
   15   19   SS      3
   15   19   SE      5
   15   19   ES     -3
   15   19   EE     -7
   15   20   SS      3
   15   20   SE    -11
   15   20   ES    -10
   15   20   EE    -11
   16   21   SS     -5
   16   21   SE      7
   16   21   ES     -5
   16   21   EE    -12
   17   20   SS      4
   17   20   SE      3
   17   20   ES    -12
   17   20   EE     -2
   17   21   SS      7
   17   21   SE     -6
   17   21   ES     -8
   17   21   EE     -2
   18   21   SS     10
   18   21   SE     -7
   18   21   ES     -2
   18   21   EE    -11
   19   22   SS    -12
   19   22   SE     -8
   19   22   ES      6
   19   22   EE     10
   20   22   SS     -8
   20   22   SE     12
   20   22   ES     -9
   20   22   EE      4
   21   22   SS     -1
   21   22   SE    -10
   21   22   ES     -1
   21   22   EE     10
************************************************************************
